RT is False
Default write of storage_offers_DA.csv just to have a file (but constraint should be inactive)
Reading model...
...model read.
creating competitive generators file...
...competitive generators recorded.
Loading data...
.. day-ahead data with real-time VRE data read.
Compiling instance...
...instance created.
Creating Offer Mitigation (model will solve as dispatch if TRUE)...
NOTE: storage offers will not be mitigated
...storage offer mitigation file created
Converting model to MPEC...
...converted
NOTE: initial MIP solve with only storage competitive to get feasible solution
Solving...

Welcome to IBM(R) ILOG(R) CPLEX(R) Interactive Optimizer 12.9.0.0
  with Simplex, Mixed Integer & Barrier Optimizers
5725-A06 5725-A29 5724-Y48 5724-Y49 5724-Y54 5724-Y55 5655-Y21
Copyright IBM Corp. 1988, 2019.  All Rights Reserved.

Type 'help' for a list of available commands.
Type 'help' followed by a command name for more
information on commands.

CPLEX> Logfile 'cplex.log' closed.
Logfile 'C:\Users\llavin\Desktop\test826\logs\tmpvfs5foy1.cplex.log' open.
CPLEX> New value for parallel optimization mode: -1
CPLEX> New value for emphasis for MIP optimization: 1
CPLEX> New value for mixed integer optimality gap tolerance: 0.01
CPLEX> New value for integrality tolerance: 1e-12
CPLEX> New value for deterministic time limit in ticks: 75000
CPLEX> Problem 'C:\Users\llavin\Desktop\test826\logs\tmpw4eku347.pyomo.lp' read.
Read time = 0.24 sec. (13.92 ticks)
CPLEX> Problem name         : C:\Users\llavin\Desktop\test826\logs\tmpw4eku347.pyomo.lp
Objective sense      : Maximize
Variables            :   53809  [Nneg: 1,  Box: 22004,  Free: 4464,
                                 Binary: 27340]
Objective nonzeros   :    8974
Linear constraints   :  123253  [Less: 41346,  Greater: 59096,  Equal: 22811]
  Nonzeros           :  293283
  RHS nonzeros       :   67485

Variables            : Min LB: -5000.000        Max UB: 1000000.       
Objective nonzeros   : Min   : 0.05833333       Max   : 834.7833       
Linear constraints   :
  Nonzeros           : Min   : 0.05833333       Max   : 1000000.       
  RHS nonzeros       : Min   : 0.05833333       Max   : 1000000.       
CPLEX> CPXPARAM_Parallel                                -1
CPXPARAM_Emphasis_MIP                            1
CPXPARAM_DetTimeLimit                            75000
CPXPARAM_MIP_Tolerances_MIPGap                   0.01
CPXPARAM_MIP_Tolerances_Integrality              9.9999999999999998e-13
Tried aggregator 4 times.
MIP Presolve eliminated 88679 rows and 18934 columns.
MIP Presolve added 3397 rows and 0 columns.
MIP Presolve modified 24892 coefficients.
Aggregator did 13011 substitutions.
Reduced MIP has 24960 rows, 21307 columns, and 71225 nonzeros.
Reduced MIP has 8412 binaries, 0 generals, 0 SOSs, and 0 indicators.
Presolve time = 0.33 sec. (193.68 ticks)
Probing fixed 390 vars, tightened 4867 bounds.
Probing time = 0.08 sec. (19.37 ticks)
Tried aggregator 2 times.
MIP Presolve eliminated 880 rows and 780 columns.
MIP Presolve modified 3031 coefficients.
Aggregator did 36 substitutions.
Reduced MIP has 24044 rows, 20491 columns, and 68577 nonzeros.
Reduced MIP has 8022 binaries, 0 generals, 0 SOSs, and 0 indicators.
Presolve time = 0.11 sec. (87.47 ticks)
Probing fixed 0 vars, tightened 324 bounds.
Probing time = 0.14 sec. (23.09 ticks)
Clique table members: 43604.
MIP emphasis: integer feasibility.
MIP search method: dynamic search.
Parallel mode: opportunistic, using up to 32 threads.
Root relaxation solution time = 0.39 sec. (599.19 ticks)

        Nodes                                         Cuts/
   Node  Left     Objective  IInf  Best Integer    Best Bound    ItCnt     Gap

      0     0     3482.6137   117                   3482.6137     5132         
*     0+    0                         3482.6137     3482.6137             0.00%
      0     0        cutoff           3482.6137     3482.6137     5132    0.00%
Elapsed time = 1.69 sec. (1291.80 ticks, tree = 0.01 MB, solutions = 1)

Root node processing (before b&c):
  Real time             =    1.70 sec. (1293.75 ticks)
Parallel b&c, 32 threads:
  Real time             =    0.00 sec. (0.00 ticks)
  Sync time (average)   =    0.00 sec.
  Wait time (average)   =    0.00 sec.
                          ------------
Total (root+branch&cut) =    1.70 sec. (1293.75 ticks)

Solution pool: 1 solution saved.

MIP - Integer optimal solution:  Objective =  3.4826137045e+03
Solution time =    1.72 sec.  Iterations = 5132  Nodes = 0
Deterministic time = 1293.90 ticks  (753.14 ticks/sec)

CPLEX> Incumbent solution written to file 'C:\Users\llavin\Desktop\test826\logs\tmp0jitpepd.cplex.sol'.
CPLEX> NOTE: no warmstart specified for MIP iteration, default behavior is true
NOTE: resolving with all competitive generators using storage-only solution to warmstart
Solving...

Welcome to IBM(R) ILOG(R) CPLEX(R) Interactive Optimizer 12.9.0.0
  with Simplex, Mixed Integer & Barrier Optimizers
5725-A06 5725-A29 5724-Y48 5724-Y49 5724-Y54 5724-Y55 5655-Y21
Copyright IBM Corp. 1988, 2019.  All Rights Reserved.

Type 'help' for a list of available commands.
Type 'help' followed by a command name for more
information on commands.

CPLEX> Logfile 'cplex.log' closed.
Logfile 'C:\Users\llavin\Desktop\test826\logs\tmp7utpkbp_.cplex.log' open.
CPLEX> New value for parallel optimization mode: -1
CPLEX> New value for emphasis for MIP optimization: 1
CPLEX> New value for mixed integer optimality gap tolerance: 0.01
CPLEX> New value for integrality tolerance: 1e-12
CPLEX> New value for deterministic time limit in ticks: 75000
CPLEX> Problem 'C:\Users\llavin\Desktop\test826\logs\tmp6i485l2w.pyomo.lp' read.
Read time = 0.22 sec. (13.94 ticks)
CPLEX> MIP start file 'C:\Users\llavin\Desktop\test826\logs\tmpl5jlyux3.cplex.mst' read.
CPLEX> Problem name         : C:\Users\llavin\Desktop\test826\logs\tmp6i485l2w.pyomo.lp
Objective sense      : Maximize
Variables            :   54529  [Nneg: 1,  Box: 22724,  Free: 4464,
                                 Binary: 27340]
Objective nonzeros   :    9670
Linear constraints   :  123253  [Less: 41346,  Greater: 59096,  Equal: 22811]
  Nonzeros           :  293283
  RHS nonzeros       :   67485

Variables            : Min LB: -5000.000        Max UB: 1000000.       
Objective nonzeros   : Min   : 0.05833333       Max   : 786.1500       
Linear constraints   :
  Nonzeros           : Min   : 0.05833333       Max   : 1000000.       
  RHS nonzeros       : Min   : 0.05833333       Max   : 1000000.       
CPLEX> CPXPARAM_Parallel                                -1
CPXPARAM_Emphasis_MIP                            1
CPXPARAM_DetTimeLimit                            75000
CPXPARAM_MIP_Tolerances_MIPGap                   0.01
CPXPARAM_MIP_Tolerances_Integrality              9.9999999999999998e-13
Warning:  No solution found from 1 MIP starts.
Retaining values of one MIP start for possible repair.
Tried aggregator 4 times.
MIP Presolve eliminated 88679 rows and 19654 columns.
MIP Presolve added 3397 rows and 0 columns.
MIP Presolve modified 24892 coefficients.
Aggregator did 13011 substitutions.
Reduced MIP has 24960 rows, 21307 columns, and 71225 nonzeros.
Reduced MIP has 8412 binaries, 0 generals, 0 SOSs, and 0 indicators.
Presolve time = 0.34 sec. (194.09 ticks)
Probing fixed 390 vars, tightened 4867 bounds.
Probing time = 0.06 sec. (19.37 ticks)
Tried aggregator 2 times.
MIP Presolve eliminated 880 rows and 780 columns.
MIP Presolve modified 3031 coefficients.
Aggregator did 36 substitutions.
Reduced MIP has 24044 rows, 20491 columns, and 68577 nonzeros.
Reduced MIP has 8022 binaries, 0 generals, 0 SOSs, and 0 indicators.
Presolve time = 0.11 sec. (87.47 ticks)
Probing fixed 0 vars, tightened 324 bounds.
Probing time = 0.16 sec. (23.09 ticks)
Clique table members: 43604.
MIP emphasis: integer feasibility.
MIP search method: dynamic search.
Parallel mode: opportunistic, using up to 32 threads.
Root relaxation solution time = 0.44 sec. (638.00 ticks)

        Nodes                                         Cuts/
   Node  Left     Objective  IInf  Best Integer    Best Bound    ItCnt     Gap

      0     0   164827.5107   287                 164827.5107     5756         
      0     0   161912.8315   283                   Cuts: 184     6046         
      0     0   160415.5301   293                   Cuts: 130     6219         
      0     0   159808.8473   297                    Cuts: 89     6303         
Repair heuristic found nothing.
      0    27   156134.1198   283                     Cuts: 5     6741         
Elapsed time = 4.72 sec. (1933.10 ticks, tree = 0.02 MB, solutions = 0)
    644   204   142390.0268   171                 157507.0664     9519         
   1265   649   123369.3348   158                 157507.0664    16267         
   1827  1224    62610.0932   119                 157507.0664    27177         
   2307  1541    19333.6640   147                 157507.0664    38402         
   2895  1857    -9467.1009    64                 157507.0664    57005         
   3594  2296   -78302.3794    38                 157507.0664    71067         
   4305  2753   -31795.2781    52                 157507.0664    82299         
   4989  3095   -29578.4175    99                 157507.0664    95844         
   5645  3218    -5687.1178    47                 157507.0664   102719         
   7979  4489   -27498.3680    76                 157507.0664   160716         
Elapsed time = 21.95 sec. (5036.69 ticks, tree = 67.13 MB, solutions = 0)
  10100  5739    -2804.2893    90                 157507.0664   227745         
  12062  6854   -30928.9940   117                 157507.0664   299472         
  13867  7890     -474.2944   128                 157507.0664   394294         
  15719  8945    -8578.7791    94                 157507.0664   508184         
  17696  8644  -129458.6289    67                 157507.0664   470395         
  19643  8793     5958.6323   120                 157507.0664   493211         
  21518 10740    13214.6128    78                 157507.0664   688736         
  23326  9431    infeasible                       157507.0664   564118         
  24990 10689    11645.8426    77                 157507.0664   686710         
  26747 10140    infeasible                       157507.0664   632905         
Elapsed time = 67.89 sec. (14577.35 ticks, tree = 105.32 MB, solutions = 0)
  28494 11540    -8641.0052   252                 157507.0664   776830         
  30191 13660   -19156.6635    71                 157089.8866  1024739         
  31883 10901   -11175.0916    87                 157089.8866   709041         
  33561 13823    infeasible                       157089.8866  1050029         
  35207 15624    infeasible                       157089.8866  1269604         
  36788 16561   -78361.1432    66                 156539.7310  1363364         
  38320 13407  -100018.3065    85                 156539.7310   969891         
  39763 14484  -142862.6693    51                 156260.5030  1133242         
  41093 14874    infeasible                       156260.5030  1186994         
  42541 12845    infeasible                       156260.5030   913406         
Elapsed time = 186.13 sec. (24118.20 ticks, tree = 175.16 MB, solutions = 0)
  43916 14019     -313.4605    44                 155828.9169  1037889         
  45054 15821  -197538.8257    57                 155828.9169  1284346         
  46099 16609   -76203.1247    75                 155828.9169  1381709         
  47033 13715   -82282.2274    68                 155828.9169  1005300         
* 47616 17834      integral     0     2681.8976   155828.9169  1514134     --- 
  47987 14229    infeasible           2681.8976   155828.9169  1094430     --- 
* 48033 18187      integral     0     2765.3829   155828.9169  1546249     --- 
  48749 17769    infeasible           2765.3829   155828.9169  1482235     --- 
  49564 14174 -8892495.4239   106     2765.3829   155828.9169  1100301     --- 
  50312 17859    infeasible           2765.3829   155828.9169  1485844     --- 
  51057 14593  -154200.3552    58     2765.3829   155828.9169  1154929     --- 
  51753 17921   -24022.2686    73     2765.3829   155828.9169  1490403     --- 
Elapsed time = 230.69 sec. (33660.92 ticks, tree = 480.73 MB, solutions = 2)
  52561 16023   -18012.6195    61     2765.3829   155828.9169  1312525     --- 
  53361 14179     8388.7770    68     2765.3829   155828.9169  1113356     --- 
  54336 14598  -120488.5762    45     2765.3829   155828.9169  1160806     --- 
  55110 15469   -11648.9546    49     2765.3829   155828.9169  1240157     --- 
  55705 15506    -6823.3046    59     2765.3829   155828.9169  1241205     --- 
  56172 18094  -276209.1586    65     2765.3829   155828.9169  1500429     --- 
  56432 18113   -35239.2255    81     2765.3829   155828.9169  1501524     --- 
  56691 17173     3333.5169    32     2765.3829   155828.9169  1421451     --- 
  56922 17250     3333.5169    24     2765.3829   155828.9169  1432148     --- 
  57147 18138   -30694.9853    66     2765.3829   155828.9169  1506224     --- 
Elapsed time = 238.45 sec. (43209.80 ticks, tree = 482.59 MB, solutions = 2)
  57351 17977    infeasible           2765.3829   155828.9169  1474413     --- 
  57531 18013   -23162.6117    49     2765.3829   155828.9169  1475870     --- 
  57727 18033   -62943.9438    42     2765.3829   155828.9169  1477391     --- 
  57893 18192    infeasible           2765.3829   155828.9169  1514614     --- 
  58016 18231    infeasible           2765.3829   155828.9169  1517419     --- 
  58148 17637     3382.6057    18     2765.3829   155828.9169  1472794     --- 
  58249 18337     3440.2274    24     2765.3829   155828.9169  1546713     --- 
  58361 18290   -99589.1314    42     2765.3829   155828.9169  1523887     --- 
  58446 18276    infeasible           2765.3829   155828.9169  1526478     --- 
  58563 17281     3280.3274    17     2765.3829   155828.9169  1440759     --- 
Elapsed time = 246.05 sec. (52792.27 ticks, tree = 418.22 MB, solutions = 2)
  58713 17303   -13890.8511   118     2765.3829   155828.9169  1443164     --- 
  58876 17578     3448.2531    14     2765.3829   155828.9169  1460859     --- 
  59044 18322   -20482.6914    64     2765.3829   155828.9169  1539086     --- 
  59180 18341    infeasible           2765.3829   155828.9169  1541405     --- 
  59274 18331     3470.6547    24     2765.3829   155828.9169  1546629     --- 
  59308 18330    infeasible           2765.3829   155828.9169  1546645     --- 
  59344 18330    infeasible           2765.3829   155828.9169  1546664     --- 
  59370 17631    infeasible           2765.3829   155828.9169  1472713     --- 
  59406 18339    infeasible           2765.3829   155828.9169  1546799     --- 
  59432 18340     3440.2274    24     2765.3829   155828.9169  1546815     --- 
Elapsed time = 249.61 sec. (62639.99 ticks, tree = 628.90 MB, solutions = 2)
  59461 18321    infeasible           2765.3829   155828.9169  1546550     --- 
  59486 18201     3448.2531    23     2765.3829   155828.9169  1530055     --- 
  59504 18321    infeasible           2765.3829   155828.9169  1546556     --- 
  59515 18322     3448.2531    23     2765.3829   155828.9169  1546486     --- 
  59533 18330     3448.2531    13     2765.3829   155828.9169  1546611     --- 
  59538 18404     3448.2531    31     2765.3829   155828.9169  1555886     --- 
  59549 18404     3448.2531    31     2765.3829   155828.9169  1555887     --- 
  59559 18331     3448.2531    13     2765.3829   155828.9169  1546640     --- 
  59561 18330     2910.1770    23     2765.3829   155828.9169  1546610     --- 
  59563 18405     2910.1770    23     2765.3829   155828.9169  1555849     --- 
Elapsed time = 249.61 sec. (75127.04 ticks, tree = 647.60 MB, solutions = 2)

Cover cuts applied:  22
Implied bound cuts applied:  3
Flow cuts applied:  264
Mixed integer rounding cuts applied:  20
Gomory fractional cuts applied:  2

Root node processing (before b&c):
  Real time             =    2.84 sec. (1888.47 ticks)
Parallel b&c, 32 threads:
  Real time             =  247.51 sec. (73245.94 ticks)
  Sync time (average)   =    2.14 sec.
  Wait time (average)   =    0.00 sec.
                          ------------
Total (root+branch&cut) =  250.36 sec. (75134.41 ticks)

Solution pool: 2 solutions saved.

MIP - Deterministic time limit exceeded, integer feasible:  Objective =  2.7653828911e+03
Current MIP best bound =  1.5384981263e+05 (gap = 151084, 5.5e+03%)
Solution time =  250.38 sec.  Iterations = 2204935  Nodes = 59564 (3944)
Deterministic time = 75134.57 ticks  (300.09 ticks/sec)

CPLEX> Incumbent solution written to file 'C:\Users\llavin\Desktop\test826\logs\tmpjn5jn136.cplex.sol'.
CPLEX> Exporting results... 
